8466,822,23,10,1.77
8467,822,6,22,0.34
8488,822,20,18,1.16
8489,822,4,19,0.26
8533,977,21,21,1.00
8534,977,18,16,1.21
8666,977,27,12,1.57
8667,977,16,18,0.88
9031,977,28,14,1.86
9032,977,14,22,0.70
9035,977,15,15,0.95
9036,977,12,17,0.68
